Gurobi 12.0.1:   lim:time = 14400
  mip:bestbound = 1
Set parameter LogToConsole to value 1
  tech:outlev = 1
Set parameter Cuts to value 3
  cut:cuts = 3
Set parameter Presolve to value 2
  pre:solve = 2
Set parameter MIPFocus to value 2
  mip:focus = 2
Set parameter Symmetry to value 2
  mip:symmetry = 2
Set parameter InfUnbdInfo to value 1
Gurobi Optimizer version 12.0.1 build v12.0.1rc0 (win64 - Windows 11.0 (26100.2))

CPU model: Intel(R) Core(TM) i7-10700 CPU @ 2.90GHz, instruction set [SSE2|AVX|AVX2]
Thread count: 8 physical cores, 16 logical processors, using up to 16 threads

Non-default parameters:
TimeLimit  14400
MIPFocus  2
Symmetry  2
Cuts  3
InfUnbdInfo  1
Presolve  2

Optimize a model with 380 rows, 518 columns and 3044 nonzeros
Model fingerprint: 0x14ad73e2
Model has 1 quadratic objective term
Model has 5 quadratic constraints
Variable types: 31 continuous, 487 integer (0 binary)
Coefficient statistics:
  Matrix range     [1e+00, 1e+05]
  QMatrix range    [1e+00, 1e+00]
  QLMatrix range   [1e+00, 2e+01]
  Objective range  [2e+00, 1e+02]
  QObjective range [3e+00, 3e+00]
  Bounds range     [1e+00, 1e+02]
  RHS range        [1e+00, 1e+05]
  QRHS range       [1e+02, 1e+02]
Presolve removed 47 rows and 84 columns
Presolve time: 0.06s
Presolved: 672 rows, 707 columns, 4309 nonzeros
Variable types: 15 continuous, 692 integer (657 binary)
Found heuristic solution: objective 467.7900000
Root relaxation presolve removed 57 rows and 2 columns
Root relaxation presolved: 371 rows, 537 columns, 3965 nonzeros


Root relaxation: objective 9.857328e+01, 69 iterations, 0.01 seconds (0.00 work units)

    Nodes    |    Current Node    |     Objective Bounds      |     Work
 Expl Unexpl |  Obj  Depth IntInf | Incumbent    BestBd   Gap | It/Node Time

     0     0   98.57328    0   33  467.79000   98.57328  78.9%     -    0s
H    0     0                     391.7500000   98.57328  74.8%     -    0s
     0     0  193.76000    0   20  391.75000  193.76000  50.5%     -    0s
     0     0  193.76000    0   23  391.75000  193.76000  50.5%     -    0s
H    0     0                     375.6300000  193.76000  48.4%     -    0s
H    0     0                     375.1400000  193.76000  48.3%     -    0s
     0     0  193.79873    0   14  375.14000  193.79873  48.3%     -    0s
H    0     0                     374.0600000  193.79873  48.2%     -    0s
     0     0  193.79873    0   14  374.06000  193.79873  48.2%     -    0s
H    0     0                     373.2600000  193.79873  48.1%     -    0s
H    0     0                     371.4200000  198.95811  46.4%     -    0s
     0     0  210.26576    0   24  371.42000  210.26576  43.4%     -    0s
     0     0  210.26576    0   24  371.42000  210.26576  43.4%     -    0s
     0     2  210.26576    0   24  371.42000  210.26576  43.4%     -    0s
H   31    60                     370.9300000  210.26576  43.3%  15.4    0s
H   41    60                     370.4400000  210.26576  43.2%  13.4    0s
*  304   211              34     369.9500000  210.26576  43.2%   8.5    0s
H  814   337                     361.6600000  216.10182  40.2%   8.8    0s
H  816   337                     356.8900000  216.10182  39.4%   8.8    0s
H 3208   665                     341.8700000  263.71410  22.9%   9.4    0s
H 4279   606                     339.6500000  283.00754  16.7%   9.5    1s
* 4681   510              22     325.6100000  290.44000  10.8%   9.4    1s

Cutting planes:
  Learned: 18
  Gomory: 13
  Lift-and-project: 3
  Cover: 5
  Implied bound: 30
  Projected implied bound: 1
  Clique: 4
  MIR: 40
  StrongCG: 19
  Flow cover: 166
  GUB cover: 6
  Inf proof: 11
  Zero half: 74
  Mod-K: 1
  RLT: 88
  Relax-and-lift: 17

Explored 6047 nodes (55065 simplex iterations) in 1.29 seconds (1.36 work units)
Thread count was 16 (of 16 available processors)

Solution count 10: 325.61 339.65 341.87 ... 373.26

Optimal solution found (tolerance 1.00e-04)
Best objective 3.256100000000e+02, best bound 3.256100000000e+02, gap 0.0000%

AMPL MP initial flat model has 518 variables (0 integer, 487 binary);
Objectives: 1 quadratic; 
Constraints:  380 linear; 5 quadratic;

AMPL MP final model has 518 variables (0 integer, 487 binary);
Objectives: 1 quadratic; 
Constraints:  380 linear; 5 quadratic;


-----RESULTS INFO-----
running_time:  1.359
TC.best_bound:  325.61
TC:  325.61
MIP Gap (%):  0
=== Vehicle Routes ===
Vehicle 1: 0 → 1
Vehicle 1: 1 → 3
Vehicle 1: 3 → 11
Vehicle 1: 11 → 15
Vehicle 1: 15 → 19
Vehicle 2: 0 → 2
Vehicle 2: 2 → 18
Vehicle 2: 18 → 19
Vehicle 3: 0 → 19

=== Full Vehicle Routes ===
Vehicle 1: 0 → 1 → 3 → 11 → 15 → 0 (87<100)
Vehicle 2: 0 → 2 → 18 → 0 (36<100)
Vehicle 3: 0 → 0 (0<100)
Arc used by MRT line: y variables:
Customer assigment to PL: u variables:
4 18
5 11
6 11
7 18
8 15
9 15
Node is served by regular vehicle: g variables:
1
2
3
18
11
15
Customer assigment to Home delivery: gm variables:
1
2
3
Node total demands: ntd variables:
1 24 1
2 20 1
3 15 1
7 0 0
8 0 0
9 0 0
16 0 0
17 0 0
18 16 1
10 0 0
11 15 1
12 0 0
13 0 0
14 0 0
15 33 1
Customer's demand delivered to PL: l variables:
4
5
6
7
8
9
Lockers load <= capacity:
0 <= 79
0 <= 75
16 <= 82
0 <= 85
15 <= 76
0 <= 85
0 <= 83
0 <= 87
33 <= 97
